; Options: -in -smt2
(set-option :produce-unsat-assumptions true)

(declare-fun start!2333 () Bool)

(assert start!2333)

(declare-fun b!12282 () Bool)

(declare-fun res!9632 () Bool)

(declare-fun e!6977 () Bool)

(assert (=> b!12282 (=> (not res!9632) (not e!6977))))

(declare-datatypes ((array!906 0))(
  ( (array!907 (arr!397 (Array (_ BitVec 32) (_ FloatingPoint 11 53))) (size!397 (_ BitVec 32))) )
))
(declare-fun qq!48 () array!906)

(declare-fun qqInv!0 (array!906) Bool)

(assert (=> b!12282 (= res!9632 (qqInv!0 qq!48))))

(declare-fun b!12283 () Bool)

(declare-datatypes ((Unit!1370 0))(
  ( (Unit!1371) )
))
(declare-datatypes ((array!908 0))(
  ( (array!909 (arr!398 (Array (_ BitVec 32) (_ BitVec 32))) (size!398 (_ BitVec 32))) )
))
(declare-datatypes ((tuple3!228 0))(
  ( (tuple3!229 (_1!315 Unit!1370) (_2!315 array!908) (_3!252 (_ BitVec 32))) )
))
(declare-fun e!6981 () tuple3!228)

(declare-datatypes ((tuple4!276 0))(
  ( (tuple4!277 (_1!316 Unit!1370) (_2!316 array!908) (_3!253 (_ BitVec 32)) (_4!138 (_ FloatingPoint 11 53))) )
))
(declare-fun lt!6424 () tuple4!276)

(declare-fun lt!6421 () (_ BitVec 32))

(declare-fun Unit!1372 () Unit!1370)

(assert (=> b!12283 (= e!6981 (tuple3!229 Unit!1372 (_2!316 lt!6424) lt!6421))))

(declare-fun b!12284 () Bool)

(declare-fun e!6980 () Bool)

(assert (=> b!12284 (= e!6980 e!6977)))

(declare-fun res!9625 () Bool)

(assert (=> b!12284 (=> (not res!9625) (not e!6977))))

(declare-fun lt!6426 () tuple3!228)

(declare-fun jz!59 () (_ BitVec 32))

(declare-fun i!271 () (_ BitVec 32))

(declare-fun lt!6419 () Bool)

(assert (=> b!12284 (= res!9625 (and (bvsle #b00000000000000000000000000000000 (select (arr!398 (_2!315 lt!6426)) (bvsub jz!59 #b00000000000000000000000000000001))) (bvsle (select (arr!398 (_2!315 lt!6426)) (bvsub jz!59 #b00000000000000000000000000000001)) #b00000000100000000000000000000000) (or (not lt!6419) (not (= (_3!252 lt!6426) #b00000000000000000000000000000000)) (not (= (select (arr!398 (_2!315 lt!6426)) (bvsub jz!59 #b00000000000000000000000000000001)) #b00000000100000000000000000000000))) (bvsle (select (arr!398 (_2!315 lt!6426)) (bvsub jz!59 #b00000000000000000000000000000001)) #b00000000011111111111111111111111) (bvsle #b00000000000000000000000000000000 i!271) (bvsle i!271 jz!59)))))

(assert (=> b!12284 (= lt!6426 e!6981)))

(declare-fun c!1540 () Bool)

(assert (=> b!12284 (= c!1540 lt!6419)))

(assert (=> b!12284 (= lt!6421 #b00000000000000000000000000000000)))

(assert (=> b!12284 (= lt!6419 (bvsge (select (arr!398 (_2!316 lt!6424)) (bvsub jz!59 #b00000000000000000000000000000001)) #b00000000100000000000000000000000))))

(declare-fun b!12285 () Bool)

(declare-fun q!93 () array!906)

(declare-fun lt!6427 () array!908)

(declare-fun e!6979 () tuple4!276)

(declare-fun lt!6425 () (_ FloatingPoint 11 53))

(declare-fun computeModuloWhile!0 ((_ BitVec 32) array!906 array!908 (_ BitVec 32) (_ FloatingPoint 11 53)) tuple4!276)

(assert (=> b!12285 (= e!6979 (computeModuloWhile!0 jz!59 q!93 lt!6427 jz!59 lt!6425))))

(declare-fun b!12286 () Bool)

(declare-fun Unit!1373 () Unit!1370)

(assert (=> b!12286 (= e!6979 (tuple4!277 Unit!1373 lt!6427 jz!59 lt!6425))))

(declare-fun lt!6420 () (_ BitVec 32))

(declare-fun b!12287 () Bool)

(declare-datatypes ((tuple4!278 0))(
  ( (tuple4!279 (_1!317 Unit!1370) (_2!317 (_ BitVec 32)) (_3!254 array!908) (_4!139 (_ BitVec 32))) )
))
(declare-fun e!6976 () tuple4!278)

(declare-fun computeModuloWhile!3 ((_ BitVec 32) array!906 (_ BitVec 32) array!908 (_ BitVec 32)) tuple4!278)

(assert (=> b!12287 (= e!6976 (computeModuloWhile!3 jz!59 q!93 lt!6420 (_2!316 lt!6424) lt!6421))))

(declare-fun b!12288 () Bool)

(declare-fun lt!6429 () (_ BitVec 32))

(assert (=> b!12288 (= e!6977 (and (not (= (bvand lt!6429 #b10000000000000000000000000000000) (bvand i!271 #b10000000000000000000000000000000))) (not (= (bvand lt!6429 #b10000000000000000000000000000000) (bvand (bvsub lt!6429 i!271) #b10000000000000000000000000000000)))))))

(assert (=> b!12288 (= lt!6429 (bvsub jz!59 #b00000000000000000000000000000001))))

(declare-fun b!12289 () Bool)

(declare-fun res!9628 () Bool)

(declare-fun e!6975 () Bool)

(assert (=> b!12289 (=> (not res!9628) (not e!6975))))

(declare-fun qInv!0 (array!906) Bool)

(assert (=> b!12289 (= res!9628 (qInv!0 q!93))))

(declare-fun b!12290 () Bool)

(declare-fun res!9633 () Bool)

(assert (=> b!12290 (=> (not res!9633) (not e!6977))))

(declare-fun iq!194 () array!908)

(assert (=> b!12290 (= res!9633 (and (bvsle (select (arr!398 iq!194) (bvsub jz!59 #b00000000000000000000000000000001)) #b00000000011111111111111111111111) (= (size!397 qq!48) #b00000000000000000000000000010100)))))

(declare-fun b!12291 () Bool)

(declare-fun res!9626 () Bool)

(assert (=> b!12291 (=> (not res!9626) (not e!6977))))

(assert (=> b!12291 (= res!9626 (bvslt i!271 jz!59))))

(declare-fun b!12292 () Bool)

(assert (=> b!12292 (= e!6975 e!6980)))

(declare-fun res!9630 () Bool)

(assert (=> b!12292 (=> (not res!9630) (not e!6980))))

(declare-fun lt!6428 () (_ FloatingPoint 11 53))

(assert (=> b!12292 (= res!9630 (and (fp.leq (fp #b0 #b00000000000 #b0000000000000000000000000000000000000000000000000000) lt!6428) (fp.lt lt!6428 (fp #b0 #b10000000010 #b0000000000000000000000000000000000000000000000000000))))))

(assert (=> b!12292 (= lt!6428 (fp.sub roundNearestTiesToEven (_4!138 lt!6424) (fp.mul roundNearestTiesToEven (fp #b0 #b10000000010 #b0000000000000000000000000000000000000000000000000000) ((_ to_fp 11 53) roundNearestTiesToEven (ite (fp.isNaN (fp.mul roundNearestTiesToEven (_4!138 lt!6424) (fp #b0 #b01111111100 #b0000000000000000000000000000000000000000000000000000))) #b0000000000000000000000000000000000000000000000000000000000000000 (ite (fp.gt (fp.mul roundNearestTiesToEven (_4!138 lt!6424) (fp #b0 #b01111111100 #b0000000000000000000000000000000000000000000000000000)) ((_ to_fp 11 53) roundTowardZero #b0111111111111111111111111111111111111111111111111111111111111111)) #b0111111111111111111111111111111111111111111111111111111111111111 (ite (fp.lt (fp.mul roundNearestTiesToEven (_4!138 lt!6424) (fp #b0 #b01111111100 #b0000000000000000000000000000000000000000000000000000)) ((_ to_fp 11 53) roundTowardZero #b1000000000000000000000000000000000000000000000000000000000000000)) #b1000000000000000000000000000000000000000000000000000000000000000 ((_ fp.to_sbv 64) roundTowardZero (fp.mul roundNearestTiesToEven (_4!138 lt!6424) (fp #b0 #b01111111100 #b0000000000000000000000000000000000000000000000000000))))))))))))

(assert (=> b!12292 (= lt!6424 e!6979)))

(declare-fun c!1539 () Bool)

(assert (=> b!12292 (= c!1539 (bvsgt jz!59 #b00000000000000000000000000000000))))

(assert (=> b!12292 (= lt!6425 (select (arr!397 q!93) jz!59))))

(assert (=> b!12292 (= lt!6427 (array!909 ((as const (Array (_ BitVec 32) (_ BitVec 32))) #b00000000000000000000000000000000) #b00000000000000000000000000010100))))

(declare-fun b!12293 () Bool)

(declare-fun res!9629 () Bool)

(assert (=> b!12293 (=> (not res!9629) (not e!6977))))

(declare-fun QInt!0 ((_ BitVec 32)) Bool)

(assert (=> b!12293 (= res!9629 (QInt!0 (select (arr!398 iq!194) (bvsub (bvsub jz!59 #b00000000000000000000000000000001) i!271))))))

(declare-fun res!9627 () Bool)

(assert (=> start!2333 (=> (not res!9627) (not e!6975))))

(assert (=> start!2333 (= res!9627 (and (bvsle #b00000000000000000000000000000010 jz!59) (bvslt jz!59 #b00000000000000000000000000010011)))))

(assert (=> start!2333 e!6975))

(assert (=> start!2333 true))

(declare-fun array_inv!346 (array!908) Bool)

(assert (=> start!2333 (array_inv!346 iq!194)))

(declare-fun array_inv!347 (array!906) Bool)

(assert (=> start!2333 (array_inv!347 qq!48)))

(assert (=> start!2333 (array_inv!347 q!93)))

(declare-fun b!12281 () Bool)

(declare-fun Unit!1374 () Unit!1370)

(assert (=> b!12281 (= e!6976 (tuple4!279 Unit!1374 lt!6420 (_2!316 lt!6424) lt!6421))))

(declare-fun b!12294 () Bool)

(declare-fun lt!6423 () (_ BitVec 32))

(declare-fun lt!6422 () tuple4!278)

(declare-fun Unit!1375 () Unit!1370)

(assert (=> b!12294 (= e!6981 (tuple3!229 Unit!1375 (array!909 (store (arr!398 (_3!254 lt!6422)) (bvsub jz!59 #b00000000000000000000000000000001) (ite (= (_4!139 lt!6422) #b00000000000000000000000000000000) (bvsub #b00000001000000000000000000000000 lt!6423) (bvsub #b00000000111111111111111111111111 lt!6423))) (size!398 (_3!254 lt!6422))) (_4!139 lt!6422)))))

(assert (=> b!12294 (= lt!6420 #b00000000000000000000000000000000)))

(declare-fun c!1541 () Bool)

(assert (=> b!12294 (= c!1541 (bvslt lt!6420 (bvsub jz!59 #b00000000000000000000000000000001)))))

(assert (=> b!12294 (= lt!6422 e!6976)))

(assert (=> b!12294 (= lt!6423 (select (arr!398 (_3!254 lt!6422)) (bvsub jz!59 #b00000000000000000000000000000001)))))

(declare-fun b!12295 () Bool)

(declare-fun res!9631 () Bool)

(assert (=> b!12295 (=> (not res!9631) (not e!6977))))

(declare-fun iqInv!0 (array!908) Bool)

(assert (=> b!12295 (= res!9631 (iqInv!0 iq!194))))

(assert (= (and start!2333 res!9627) b!12289))

(assert (= (and b!12289 res!9628) b!12292))

(assert (= (and b!12292 c!1539) b!12285))

(assert (= (and b!12292 (not c!1539)) b!12286))

(assert (= (and b!12292 res!9630) b!12284))

(assert (= (and b!12284 c!1540) b!12294))

(assert (= (and b!12284 (not c!1540)) b!12283))

(assert (= (and b!12294 c!1541) b!12287))

(assert (= (and b!12294 (not c!1541)) b!12281))

(assert (= (and b!12284 res!9625) b!12295))

(assert (= (and b!12295 res!9631) b!12290))

(assert (= (and b!12290 res!9633) b!12282))

(assert (= (and b!12282 res!9632) b!12291))

(assert (= (and b!12291 res!9626) b!12293))

(assert (= (and b!12293 res!9629) b!12288))

(declare-fun m!18279 () Bool)

(assert (=> b!12289 m!18279))

(declare-fun m!18281 () Bool)

(assert (=> b!12293 m!18281))

(assert (=> b!12293 m!18281))

(declare-fun m!18283 () Bool)

(assert (=> b!12293 m!18283))

(declare-fun m!18285 () Bool)

(assert (=> b!12292 m!18285))

(declare-fun m!18287 () Bool)

(assert (=> b!12285 m!18287))

(declare-fun m!18289 () Bool)

(assert (=> b!12284 m!18289))

(declare-fun m!18291 () Bool)

(assert (=> b!12284 m!18291))

(declare-fun m!18293 () Bool)

(assert (=> b!12295 m!18293))

(declare-fun m!18295 () Bool)

(assert (=> b!12290 m!18295))

(declare-fun m!18297 () Bool)

(assert (=> b!12282 m!18297))

(declare-fun m!18299 () Bool)

(assert (=> start!2333 m!18299))

(declare-fun m!18301 () Bool)

(assert (=> start!2333 m!18301))

(declare-fun m!18303 () Bool)

(assert (=> start!2333 m!18303))

(declare-fun m!18305 () Bool)

(assert (=> b!12294 m!18305))

(declare-fun m!18307 () Bool)

(assert (=> b!12294 m!18307))

(declare-fun m!18309 () Bool)

(assert (=> b!12287 m!18309))

(check-sat (not b!12293) (not b!12295) (not b!12289) (not b!12287) (not b!12282) (not start!2333) (not b!12285))
(check-sat)
